(set-logic QF_BV)
(declare-fun _substvar_148_ () Bool)
(declare-fun _substvar_61_ () (_ BitVec 111))
(declare-fun _substvar_90_ () (_ BitVec 111))
(declare-fun _substvar_85_ () (_ BitVec 111))
(declare-fun _substvar_96_ () (_ BitVec 111))
(assert (and true true true true true true true true true true true true true true true true true true true true true true true true true true true true true true true true true true true true true true true true true true true true true true true true true true true true true true true true true true true true (= _substvar_85_ (_ bv0 111)) (ite _substvar_148_ (= _substvar_90_ (_ bv0 111)) (= _substvar_90_ (concat (_ bv0 110) (bvxor (_ bv0 1) ((_ extract 100 100) _substvar_85_))))) (= _substvar_96_ (concat ((_ extract 109 0) _substvar_90_) (bvxor ((_ extract 110 110) _substvar_90_) ((_ extract 100 100) _substvar_90_)))) (= _substvar_61_ (concat ((_ extract 109 0) _substvar_96_) (_ bv0 1))) true true true true true true true true true true true true true true true true true true true true true true true true true true true true true true true true true true true true true true true true true true true true true true true true true true true true true true true true true true true true true true true true true true true (= (= _substvar_61_ (_ bv0 111)) false)))
(check-sat)
(exit)
